c File: flat175_3_0.col
c
c SOURCE: Joseph Culberson (joe@cs.ualberta.ca)
c DESCRIPTION: Quasi-random coloring problem
c              generated with flatness = 0
c                             probability = 0.041
c                             known coloring = 3
c                             random seed = 1053
c              Creation Date:  Wed Feb 24 10:55:15 1999
c Maximum degree = 8 Minimum degree = 1
c COLOR VERIFICATION: Using the permuted order
c under simple greedy yields the specified
c coloring number
c Color = 3 specified partitions = 3
c p edge 175 417
c cnf created by edge2cnf
p cnf 525 1951
-1 -2 0
-1 -3 0
-2 -3 0
1 2 3 0
-4 -5 0
-4 -6 0
-5 -6 0
4 5 6 0
-7 -8 0
-7 -9 0
-8 -9 0
7 8 9 0
-10 -11 0
-10 -12 0
-11 -12 0
10 11 12 0
-13 -14 0
-13 -15 0
-14 -15 0
13 14 15 0
-16 -17 0
-16 -18 0
-17 -18 0
16 17 18 0
-19 -20 0
-19 -21 0
-20 -21 0
19 20 21 0
-22 -23 0
-22 -24 0
-23 -24 0
22 23 24 0
-25 -26 0
-25 -27 0
-26 -27 0
25 26 27 0
-28 -29 0
-28 -30 0
-29 -30 0
28 29 30 0
-31 -32 0
-31 -33 0
-32 -33 0
31 32 33 0
-34 -35 0
-34 -36 0
-35 -36 0
34 35 36 0
-37 -38 0
-37 -39 0
-38 -39 0
37 38 39 0
-40 -41 0
-40 -42 0
-41 -42 0
40 41 42 0
-43 -44 0
-43 -45 0
-44 -45 0
43 44 45 0
-46 -47 0
-46 -48 0
-47 -48 0
46 47 48 0
-49 -50 0
-49 -51 0
-50 -51 0
49 50 51 0
-52 -53 0
-52 -54 0
-53 -54 0
52 53 54 0
-55 -56 0
-55 -57 0
-56 -57 0
55 56 57 0
-58 -59 0
-58 -60 0
-59 -60 0
58 59 60 0
-61 -62 0
-61 -63 0
-62 -63 0
61 62 63 0
-64 -65 0
-64 -66 0
-65 -66 0
64 65 66 0
-67 -68 0
-67 -69 0
-68 -69 0
67 68 69 0
-70 -71 0
-70 -72 0
-71 -72 0
70 71 72 0
-73 -74 0
-73 -75 0
-74 -75 0
73 74 75 0
-76 -77 0
-76 -78 0
-77 -78 0
76 77 78 0
-79 -80 0
-79 -81 0
-80 -81 0
79 80 81 0
-82 -83 0
-82 -84 0
-83 -84 0
82 83 84 0
-85 -86 0
-85 -87 0
-86 -87 0
85 86 87 0
-88 -89 0
-88 -90 0
-89 -90 0
88 89 90 0
-91 -92 0
-91 -93 0
-92 -93 0
91 92 93 0
-94 -95 0
-94 -96 0
-95 -96 0
94 95 96 0
-97 -98 0
-97 -99 0
-98 -99 0
97 98 99 0
-100 -101 0
-100 -102 0
-101 -102 0
100 101 102 0
-103 -104 0
-103 -105 0
-104 -105 0
103 104 105 0
-106 -107 0
-106 -108 0
-107 -108 0
106 107 108 0
-109 -110 0
-109 -111 0
-110 -111 0
109 110 111 0
-112 -113 0
-112 -114 0
-113 -114 0
112 113 114 0
-115 -116 0
-115 -117 0
-116 -117 0
115 116 117 0
-118 -119 0
-118 -120 0
-119 -120 0
118 119 120 0
-121 -122 0
-121 -123 0
-122 -123 0
121 122 123 0
-124 -125 0
-124 -126 0
-125 -126 0
124 125 126 0
-127 -128 0
-127 -129 0
-128 -129 0
127 128 129 0
-130 -131 0
-130 -132 0
-131 -132 0
130 131 132 0
-133 -134 0
-133 -135 0
-134 -135 0
133 134 135 0
-136 -137 0
-136 -138 0
-137 -138 0
136 137 138 0
-139 -140 0
-139 -141 0
-140 -141 0
139 140 141 0
-142 -143 0
-142 -144 0
-143 -144 0
142 143 144 0
-145 -146 0
-145 -147 0
-146 -147 0
145 146 147 0
-148 -149 0
-148 -150 0
-149 -150 0
148 149 150 0
-151 -152 0
-151 -153 0
-152 -153 0
151 152 153 0
-154 -155 0
-154 -156 0
-155 -156 0
154 155 156 0
-157 -158 0
-157 -159 0
-158 -159 0
157 158 159 0
-160 -161 0
-160 -162 0
-161 -162 0
160 161 162 0
-163 -164 0
-163 -165 0
-164 -165 0
163 164 165 0
-166 -167 0
-166 -168 0
-167 -168 0
166 167 168 0
-169 -170 0
-169 -171 0
-170 -171 0
169 170 171 0
-172 -173 0
-172 -174 0
-173 -174 0
172 173 174 0
-175 -176 0
-175 -177 0
-176 -177 0
175 176 177 0
-178 -179 0
-178 -180 0
-179 -180 0
178 179 180 0
-181 -182 0
-181 -183 0
-182 -183 0
181 182 183 0
-184 -185 0
-184 -186 0
-185 -186 0
184 185 186 0
-187 -188 0
-187 -189 0
-188 -189 0
187 188 189 0
-190 -191 0
-190 -192 0
-191 -192 0
190 191 192 0
-193 -194 0
-193 -195 0
-194 -195 0
193 194 195 0
-196 -197 0
-196 -198 0
-197 -198 0
196 197 198 0
-199 -200 0
-199 -201 0
-200 -201 0
199 200 201 0
-202 -203 0
-202 -204 0
-203 -204 0
202 203 204 0
-205 -206 0
-205 -207 0
-206 -207 0
205 206 207 0
-208 -209 0
-208 -210 0
-209 -210 0
208 209 210 0
-211 -212 0
-211 -213 0
-212 -213 0
211 212 213 0
-214 -215 0
-214 -216 0
-215 -216 0
214 215 216 0
-217 -218 0
-217 -219 0
-218 -219 0
217 218 219 0
-220 -221 0
-220 -222 0
-221 -222 0
220 221 222 0
-223 -224 0
-223 -225 0
-224 -225 0
223 224 225 0
-226 -227 0
-226 -228 0
-227 -228 0
226 227 228 0
-229 -230 0
-229 -231 0
-230 -231 0
229 230 231 0
-232 -233 0
-232 -234 0
-233 -234 0
232 233 234 0
-235 -236 0
-235 -237 0
-236 -237 0
235 236 237 0
-238 -239 0
-238 -240 0
-239 -240 0
238 239 240 0
-241 -242 0
-241 -243 0
-242 -243 0
241 242 243 0
-244 -245 0
-244 -246 0
-245 -246 0
244 245 246 0
-247 -248 0
-247 -249 0
-248 -249 0
247 248 249 0
-250 -251 0
-250 -252 0
-251 -252 0
250 251 252 0
-253 -254 0
-253 -255 0
-254 -255 0
253 254 255 0
-256 -257 0
-256 -258 0
-257 -258 0
256 257 258 0
-259 -260 0
-259 -261 0
-260 -261 0
259 260 261 0
-262 -263 0
-262 -264 0
-263 -264 0
262 263 264 0
-265 -266 0
-265 -267 0
-266 -267 0
265 266 267 0
-268 -269 0
-268 -270 0
-269 -270 0
268 269 270 0
-271 -272 0
-271 -273 0
-272 -273 0
271 272 273 0
-274 -275 0
-274 -276 0
-275 -276 0
274 275 276 0
-277 -278 0
-277 -279 0
-278 -279 0
277 278 279 0
-280 -281 0
-280 -282 0
-281 -282 0
280 281 282 0
-283 -284 0
-283 -285 0
-284 -285 0
283 284 285 0
-286 -287 0
-286 -288 0
-287 -288 0
286 287 288 0
-289 -290 0
-289 -291 0
-290 -291 0
289 290 291 0
-292 -293 0
-292 -294 0
-293 -294 0
292 293 294 0
-295 -296 0
-295 -297 0
-296 -297 0
295 296 297 0
-298 -299 0
-298 -300 0
-299 -300 0
298 299 300 0
-301 -302 0
-301 -303 0
-302 -303 0
301 302 303 0
-304 -305 0
-304 -306 0
-305 -306 0
304 305 306 0
-307 -308 0
-307 -309 0
-308 -309 0
307 308 309 0
-310 -311 0
-310 -312 0
-311 -312 0
310 311 312 0
-313 -314 0
-313 -315 0
-314 -315 0
313 314 315 0
-316 -317 0
-316 -318 0
-317 -318 0
316 317 318 0
-319 -320 0
-319 -321 0
-320 -321 0
319 320 321 0
-322 -323 0
-322 -324 0
-323 -324 0
322 323 324 0
-325 -326 0
-325 -327 0
-326 -327 0
325 326 327 0
-328 -329 0
-328 -330 0
-329 -330 0
328 329 330 0
-331 -332 0
-331 -333 0
-332 -333 0
331 332 333 0
-334 -335 0
-334 -336 0
-335 -336 0
334 335 336 0
-337 -338 0
-337 -339 0
-338 -339 0
337 338 339 0
-340 -341 0
-340 -342 0
-341 -342 0
340 341 342 0
-343 -344 0
-343 -345 0
-344 -345 0
343 344 345 0
-346 -347 0
-346 -348 0
-347 -348 0
346 347 348 0
-349 -350 0
-349 -351 0
-350 -351 0
349 350 351 0
-352 -353 0
-352 -354 0
-353 -354 0
352 353 354 0
-355 -356 0
-355 -357 0
-356 -357 0
355 356 357 0
-358 -359 0
-358 -360 0
-359 -360 0
358 359 360 0
-361 -362 0
-361 -363 0
-362 -363 0
361 362 363 0
-364 -365 0
-364 -366 0
-365 -366 0
364 365 366 0
-367 -368 0
-367 -369 0
-368 -369 0
367 368 369 0
-370 -371 0
-370 -372 0
-371 -372 0
370 371 372 0
-373 -374 0
-373 -375 0
-374 -375 0
373 374 375 0
-376 -377 0
-376 -378 0
-377 -378 0
376 377 378 0
-379 -380 0
-379 -381 0
-380 -381 0
379 380 381 0
-382 -383 0
-382 -384 0
-383 -384 0
382 383 384 0
-385 -386 0
-385 -387 0
-386 -387 0
385 386 387 0
-388 -389 0
-388 -390 0
-389 -390 0
388 389 390 0
-391 -392 0
-391 -393 0
-392 -393 0
391 392 393 0
-394 -395 0
-394 -396 0
-395 -396 0
394 395 396 0
-397 -398 0
-397 -399 0
-398 -399 0
397 398 399 0
-400 -401 0
-400 -402 0
-401 -402 0
400 401 402 0
-403 -404 0
-403 -405 0
-404 -405 0
403 404 405 0
-406 -407 0
-406 -408 0
-407 -408 0
406 407 408 0
-409 -410 0
-409 -411 0
-410 -411 0
409 410 411 0
-412 -413 0
-412 -414 0
-413 -414 0
412 413 414 0
-415 -416 0
-415 -417 0
-416 -417 0
415 416 417 0
-418 -419 0
-418 -420 0
-419 -420 0
418 419 420 0
-421 -422 0
-421 -423 0
-422 -423 0
421 422 423 0
-424 -425 0
-424 -426 0
-425 -426 0
424 425 426 0
-427 -428 0
-427 -429 0
-428 -429 0
427 428 429 0
-430 -431 0
-430 -432 0
-431 -432 0
430 431 432 0
-433 -434 0
-433 -435 0
-434 -435 0
433 434 435 0
-436 -437 0
-436 -438 0
-437 -438 0
436 437 438 0
-439 -440 0
-439 -441 0
-440 -441 0
439 440 441 0
-442 -443 0
-442 -444 0
-443 -444 0
442 443 444 0
-445 -446 0
-445 -447 0
-446 -447 0
445 446 447 0
-448 -449 0
-448 -450 0
-449 -450 0
448 449 450 0
-451 -452 0
-451 -453 0
-452 -453 0
451 452 453 0
-454 -455 0
-454 -456 0
-455 -456 0
454 455 456 0
-457 -458 0
-457 -459 0
-458 -459 0
457 458 459 0
-460 -461 0
-460 -462 0
-461 -462 0
460 461 462 0
-463 -464 0
-463 -465 0
-464 -465 0
463 464 465 0
-466 -467 0
-466 -468 0
-467 -468 0
466 467 468 0
-469 -470 0
-469 -471 0
-470 -471 0
469 470 471 0
-472 -473 0
-472 -474 0
-473 -474 0
472 473 474 0
-475 -476 0
-475 -477 0
-476 -477 0
475 476 477 0
-478 -479 0
-478 -480 0
-479 -480 0
478 479 480 0
-481 -482 0
-481 -483 0
-482 -483 0
481 482 483 0
-484 -485 0
-484 -486 0
-485 -486 0
484 485 486 0
-487 -488 0
-487 -489 0
-488 -489 0
487 488 489 0
-490 -491 0
-490 -492 0
-491 -492 0
490 491 492 0
-493 -494 0
-493 -495 0
-494 -495 0
493 494 495 0
-496 -497 0
-496 -498 0
-497 -498 0
496 497 498 0
-499 -500 0
-499 -501 0
-500 -501 0
499 500 501 0
-502 -503 0
-502 -504 0
-503 -504 0
502 503 504 0
-505 -506 0
-505 -507 0
-506 -507 0
505 506 507 0
-508 -509 0
-508 -510 0
-509 -510 0
508 509 510 0
-511 -512 0
-511 -513 0
-512 -513 0
511 512 513 0
-514 -515 0
-514 -516 0
-515 -516 0
514 515 516 0
-517 -518 0
-517 -519 0
-518 -519 0
517 518 519 0
-520 -521 0
-520 -522 0
-521 -522 0
520 521 522 0
-523 -524 0
-523 -525 0
-524 -525 0
523 524 525 0
-7 -1 0
-8 -2 0
-9 -3 0
-10 -1 0
-11 -2 0
-12 -3 0
-187 -1 0
-188 -2 0
-189 -3 0
-196 -1 0
-197 -2 0
-198 -3 0
-235 -1 0
-236 -2 0
-237 -3 0
-397 -1 0
-398 -2 0
-399 -3 0
-457 -1 0
-458 -2 0
-459 -3 0
-475 -1 0
-476 -2 0
-477 -3 0
-163 -4 0
-164 -5 0
-165 -6 0
-316 -4 0
-317 -5 0
-318 -6 0
-322 -4 0
-323 -5 0
-324 -6 0
-364 -4 0
-365 -5 0
-366 -6 0
-46 -7 0
-47 -8 0
-48 -9 0
-100 -7 0
-101 -8 0
-102 -9 0
-169 -7 0
-170 -8 0
-171 -9 0
-178 -7 0
-179 -8 0
-180 -9 0
-397 -7 0
-398 -8 0
-399 -9 0
-448 -7 0
-449 -8 0
-450 -9 0
-43 -10 0
-44 -11 0
-45 -12 0
-262 -10 0
-263 -11 0
-264 -12 0
-346 -10 0
-347 -11 0
-348 -12 0
-490 -10 0
-491 -11 0
-492 -12 0
-16 -13 0
-17 -14 0
-18 -15 0
-304 -13 0
-305 -14 0
-306 -15 0
-403 -13 0
-404 -14 0
-405 -15 0
-412 -13 0
-413 -14 0
-414 -15 0
-433 -13 0
-434 -14 0
-435 -15 0
-448 -13 0
-449 -14 0
-450 -15 0
-28 -16 0
-29 -17 0
-30 -18 0
-223 -16 0
-224 -17 0
-225 -18 0
-436 -16 0
-437 -17 0
-438 -18 0
-457 -16 0
-458 -17 0
-459 -18 0
-103 -19 0
-104 -20 0
-105 -21 0
-172 -19 0
-173 -20 0
-174 -21 0
-184 -19 0
-185 -20 0
-186 -21 0
-235 -19 0
-236 -20 0
-237 -21 0
-88 -22 0
-89 -23 0
-90 -24 0
-349 -22 0
-350 -23 0
-351 -24 0
-361 -22 0
-362 -23 0
-363 -24 0
-481 -22 0
-482 -23 0
-483 -24 0
-514 -22 0
-515 -23 0
-516 -24 0
-55 -25 0
-56 -26 0
-57 -27 0
-253 -25 0
-254 -26 0
-255 -27 0
-409 -25 0
-410 -26 0
-411 -27 0
-73 -28 0
-74 -29 0
-75 -30 0
-259 -28 0
-260 -29 0
-261 -30 0
-352 -28 0
-353 -29 0
-354 -30 0
-397 -28 0
-398 -29 0
-399 -30 0
-487 -28 0
-488 -29 0
-489 -30 0
-112 -31 0
-113 -32 0
-114 -33 0
-118 -31 0
-119 -32 0
-120 -33 0
-256 -31 0
-257 -32 0
-258 -33 0
-373 -31 0
-374 -32 0
-375 -33 0
-418 -31 0
-419 -32 0
-420 -33 0
-487 -31 0
-488 -32 0
-489 -33 0
-79 -34 0
-80 -35 0
-81 -36 0
-166 -34 0
-167 -35 0
-168 -36 0
-220 -34 0
-221 -35 0
-222 -36 0
-241 -34 0
-242 -35 0
-243 -36 0
-445 -34 0
-446 -35 0
-447 -36 0
-73 -37 0
-74 -38 0
-75 -39 0
-100 -37 0
-101 -38 0
-102 -39 0
-157 -37 0
-158 -38 0
-159 -39 0
-250 -37 0
-251 -38 0
-252 -39 0
-262 -37 0
-263 -38 0
-264 -39 0
-448 -37 0
-449 -38 0
-450 -39 0
-145 -40 0
-146 -41 0
-147 -42 0
-181 -40 0
-182 -41 0
-183 -42 0
-217 -40 0
-218 -41 0
-219 -42 0
-259 -40 0
-260 -41 0
-261 -42 0
-310 -40 0
-311 -41 0
-312 -42 0
-319 -40 0
-320 -41 0
-321 -42 0
-367 -40 0
-368 -41 0
-369 -42 0
-505 -40 0
-506 -41 0
-507 -42 0
-151 -43 0
-152 -44 0
-153 -45 0
-205 -43 0
-206 -44 0
-207 -45 0
-397 -43 0
-398 -44 0
-399 -45 0
-121 -46 0
-122 -47 0
-123 -48 0
-184 -46 0
-185 -47 0
-186 -48 0
-388 -46 0
-389 -47 0
-390 -48 0
-412 -46 0
-413 -47 0
-414 -48 0
-226 -49 0
-227 -50 0
-228 -51 0
-337 -49 0
-338 -50 0
-339 -51 0
-355 -49 0
-356 -50 0
-357 -51 0
-430 -49 0
-431 -50 0
-432 -51 0
-445 -49 0
-446 -50 0
-447 -51 0
-472 -49 0
-473 -50 0
-474 -51 0
-118 -52 0
-119 -53 0
-120 -54 0
-262 -52 0
-263 -53 0
-264 -54 0
-322 -52 0
-323 -53 0
-324 -54 0
-355 -52 0
-356 -53 0
-357 -54 0
-466 -52 0
-467 -53 0
-468 -54 0
-139 -55 0
-140 -56 0
-141 -57 0
-157 -55 0
-158 -56 0
-159 -57 0
-253 -55 0
-254 -56 0
-255 -57 0
-409 -55 0
-410 -56 0
-411 -57 0
-175 -58 0
-176 -59 0
-177 -60 0
-409 -58 0
-410 -59 0
-411 -60 0
-457 -58 0
-458 -59 0
-459 -60 0
-484 -58 0
-485 -59 0
-486 -60 0
-517 -58 0
-518 -59 0
-519 -60 0
-247 -61 0
-248 -62 0
-249 -63 0
-259 -61 0
-260 -62 0
-261 -63 0
-406 -61 0
-407 -62 0
-408 -63 0
-514 -61 0
-515 -62 0
-516 -63 0
-157 -64 0
-158 -65 0
-159 -66 0
-376 -64 0
-377 -65 0
-378 -66 0
-403 -64 0
-404 -65 0
-405 -66 0
-496 -64 0
-497 -65 0
-498 -66 0
-82 -67 0
-83 -68 0
-84 -69 0
-241 -67 0
-242 -68 0
-243 -69 0
-394 -67 0
-395 -68 0
-396 -69 0
-481 -67 0
-482 -68 0
-483 -69 0
-142 -70 0
-143 -71 0
-144 -72 0
-220 -70 0
-221 -71 0
-222 -72 0
-235 -70 0
-236 -71 0
-237 -72 0
-451 -70 0
-452 -71 0
-453 -72 0
-454 -70 0
-455 -71 0
-456 -72 0
-94 -73 0
-95 -74 0
-96 -75 0
-133 -73 0
-134 -74 0
-135 -75 0
-79 -76 0
-80 -77 0
-81 -78 0
-172 -76 0
-173 -77 0
-174 -78 0
-232 -76 0
-233 -77 0
-234 -78 0
-523 -76 0
-524 -77 0
-525 -78 0
-196 -82 0
-197 -83 0
-198 -84 0
-241 -82 0
-242 -83 0
-243 -84 0
-286 -82 0
-287 -83 0
-288 -84 0
-358 -82 0
-359 -83 0
-360 -84 0
-391 -82 0
-392 -83 0
-393 -84 0
-511 -82 0
-512 -83 0
-513 -84 0
-196 -85 0
-197 -86 0
-198 -87 0
-208 -85 0
-209 -86 0
-210 -87 0
-280 -85 0
-281 -86 0
-282 -87 0
-307 -85 0
-308 -86 0
-309 -87 0
-319 -85 0
-320 -86 0
-321 -87 0
-193 -88 0
-194 -89 0
-195 -90 0
-229 -88 0
-230 -89 0
-231 -90 0
-517 -88 0
-518 -89 0
-519 -90 0
-190 -91 0
-191 -92 0
-192 -93 0
-271 -91 0
-272 -92 0
-273 -93 0
-142 -94 0
-143 -95 0
-144 -96 0
-349 -94 0
-350 -95 0
-351 -96 0
-397 -94 0
-398 -95 0
-399 -96 0
-496 -94 0
-497 -95 0
-498 -96 0
-136 -97 0
-137 -98 0
-138 -99 0
-250 -97 0
-251 -98 0
-252 -99 0
-355 -97 0
-356 -98 0
-357 -99 0
-208 -100 0
-209 -101 0
-210 -102 0
-415 -100 0
-416 -101 0
-417 -102 0
-421 -100 0
-422 -101 0
-423 -102 0
-133 -103 0
-134 -104 0
-135 -105 0
-193 -103 0
-194 -104 0
-195 -105 0
-232 -103 0
-233 -104 0
-234 -105 0
-256 -103 0
-257 -104 0
-258 -105 0
-367 -106 0
-368 -107 0
-369 -108 0
-433 -106 0
-434 -107 0
-435 -108 0
-148 -109 0
-149 -110 0
-150 -111 0
-169 -109 0
-170 -110 0
-171 -111 0
-310 -109 0
-311 -110 0
-312 -111 0
-352 -109 0
-353 -110 0
-354 -111 0
-361 -109 0
-362 -110 0
-363 -111 0
-415 -109 0
-416 -110 0
-417 -111 0
-313 -112 0
-314 -113 0
-315 -114 0
-460 -112 0
-461 -113 0
-462 -114 0
-478 -112 0
-479 -113 0
-480 -114 0
-145 -115 0
-146 -116 0
-147 -117 0
-181 -115 0
-182 -116 0
-183 -117 0
-364 -115 0
-365 -116 0
-366 -117 0
-430 -115 0
-431 -116 0
-432 -117 0
-442 -115 0
-443 -116 0
-444 -117 0
-157 -118 0
-158 -119 0
-159 -120 0
-199 -118 0
-200 -119 0
-201 -120 0
-475 -118 0
-476 -119 0
-477 -120 0
-487 -118 0
-488 -119 0
-489 -120 0
-169 -121 0
-170 -122 0
-171 -123 0
-229 -121 0
-230 -122 0
-231 -123 0
-400 -121 0
-401 -122 0
-402 -123 0
-415 -121 0
-416 -122 0
-417 -123 0
-427 -121 0
-428 -122 0
-429 -123 0
-463 -124 0
-464 -125 0
-465 -126 0
-220 -127 0
-221 -128 0
-222 -129 0
-274 -127 0
-275 -128 0
-276 -129 0
-439 -130 0
-440 -131 0
-441 -132 0
-223 -133 0
-224 -134 0
-225 -135 0
-439 -133 0
-440 -134 0
-441 -135 0
-214 -136 0
-215 -137 0
-216 -138 0
-244 -136 0
-245 -137 0
-246 -138 0
-292 -136 0
-293 -137 0
-294 -138 0
-490 -136 0
-491 -137 0
-492 -138 0
-334 -139 0
-335 -140 0
-336 -141 0
-367 -139 0
-368 -140 0
-369 -141 0
-163 -142 0
-164 -143 0
-165 -144 0
-301 -142 0
-302 -143 0
-303 -144 0
-406 -142 0
-407 -143 0
-408 -144 0
-418 -142 0
-419 -143 0
-420 -144 0
-451 -145 0
-452 -146 0
-453 -147 0
-502 -145 0
-503 -146 0
-504 -147 0
-508 -145 0
-509 -146 0
-510 -147 0
-151 -148 0
-152 -149 0
-153 -150 0
-196 -148 0
-197 -149 0
-198 -150 0
-229 -148 0
-230 -149 0
-231 -150 0
-304 -148 0
-305 -149 0
-306 -150 0
-421 -148 0
-422 -149 0
-423 -150 0
-448 -148 0
-449 -149 0
-450 -150 0
-175 -151 0
-176 -152 0
-177 -153 0
-352 -151 0
-353 -152 0
-354 -153 0
-403 -151 0
-404 -152 0
-405 -153 0
-220 -154 0
-221 -155 0
-222 -156 0
-283 -154 0
-284 -155 0
-285 -156 0
-370 -154 0
-371 -155 0
-372 -156 0
-223 -157 0
-224 -158 0
-225 -159 0
-271 -157 0
-272 -158 0
-273 -159 0
-208 -160 0
-209 -161 0
-210 -162 0
-226 -160 0
-227 -161 0
-228 -162 0
-277 -160 0
-278 -161 0
-279 -162 0
-475 -160 0
-476 -161 0
-477 -162 0
-256 -166 0
-257 -167 0
-258 -168 0
-325 -166 0
-326 -167 0
-327 -168 0
-337 -166 0
-338 -167 0
-339 -168 0
-346 -169 0
-347 -170 0
-348 -171 0
-391 -169 0
-392 -170 0
-393 -171 0
-502 -169 0
-503 -170 0
-504 -171 0
-271 -172 0
-272 -173 0
-273 -174 0
-343 -172 0
-344 -173 0
-345 -174 0
-481 -172 0
-482 -173 0
-483 -174 0
-193 -175 0
-194 -176 0
-195 -177 0
-229 -175 0
-230 -176 0
-231 -177 0
-379 -175 0
-380 -176 0
-381 -177 0
-400 -175 0
-401 -176 0
-402 -177 0
-274 -178 0
-275 -179 0
-276 -180 0
-343 -178 0
-344 -179 0
-345 -180 0
-373 -178 0
-374 -179 0
-375 -180 0
-460 -178 0
-461 -179 0
-462 -180 0
-508 -178 0
-509 -179 0
-510 -180 0
-283 -181 0
-284 -182 0
-285 -183 0
-430 -181 0
-431 -182 0
-432 -183 0
-478 -181 0
-479 -182 0
-480 -183 0
-310 -184 0
-311 -185 0
-312 -186 0
-358 -184 0
-359 -185 0
-360 -186 0
-211 -187 0
-212 -188 0
-213 -189 0
-235 -187 0
-236 -188 0
-237 -189 0
-316 -187 0
-317 -188 0
-318 -189 0
-358 -187 0
-359 -188 0
-360 -189 0
-517 -187 0
-518 -188 0
-519 -189 0
-268 -190 0
-269 -191 0
-270 -192 0
-274 -190 0
-275 -191 0
-276 -192 0
-286 -190 0
-287 -191 0
-288 -192 0
-400 -190 0
-401 -191 0
-402 -192 0
-340 -193 0
-341 -194 0
-342 -195 0
-436 -193 0
-437 -194 0
-438 -195 0
-448 -193 0
-449 -194 0
-450 -195 0
-283 -196 0
-284 -197 0
-285 -198 0
-214 -199 0
-215 -200 0
-216 -201 0
-238 -199 0
-239 -200 0
-240 -201 0
-412 -199 0
-413 -200 0
-414 -201 0
-520 -199 0
-521 -200 0
-522 -201 0
-394 -202 0
-395 -203 0
-396 -204 0
-466 -202 0
-467 -203 0
-468 -204 0
-520 -202 0
-521 -203 0
-522 -204 0
-235 -205 0
-236 -206 0
-237 -207 0
-505 -205 0
-506 -206 0
-507 -207 0
-328 -208 0
-329 -209 0
-330 -210 0
-340 -208 0
-341 -209 0
-342 -210 0
-376 -208 0
-377 -209 0
-378 -210 0
-427 -208 0
-428 -209 0
-429 -210 0
-496 -208 0
-497 -209 0
-498 -210 0
-292 -211 0
-293 -212 0
-294 -213 0
-322 -211 0
-323 -212 0
-324 -213 0
-394 -211 0
-395 -212 0
-396 -213 0
-343 -214 0
-344 -215 0
-345 -216 0
-403 -214 0
-404 -215 0
-405 -216 0
-484 -214 0
-485 -215 0
-486 -216 0
-283 -217 0
-284 -218 0
-285 -219 0
-316 -217 0
-317 -218 0
-318 -219 0
-325 -220 0
-326 -221 0
-327 -222 0
-340 -220 0
-341 -221 0
-342 -222 0
-364 -220 0
-365 -221 0
-366 -222 0
-415 -223 0
-416 -224 0
-417 -225 0
-421 -223 0
-422 -224 0
-423 -225 0
-463 -223 0
-464 -224 0
-465 -225 0
-424 -226 0
-425 -227 0
-426 -228 0
-466 -226 0
-467 -227 0
-468 -228 0
-370 -229 0
-371 -230 0
-372 -231 0
-421 -229 0
-422 -230 0
-423 -231 0
-472 -229 0
-473 -230 0
-474 -231 0
-388 -232 0
-389 -233 0
-390 -234 0
-460 -232 0
-461 -233 0
-462 -234 0
-304 -235 0
-305 -236 0
-306 -237 0
-472 -235 0
-473 -236 0
-474 -237 0
-331 -238 0
-332 -239 0
-333 -240 0
-397 -238 0
-398 -239 0
-399 -240 0
-472 -238 0
-473 -239 0
-474 -240 0
-280 -241 0
-281 -242 0
-282 -243 0
-337 -241 0
-338 -242 0
-339 -243 0
-475 -241 0
-476 -242 0
-477 -243 0
-250 -244 0
-251 -245 0
-252 -246 0
-295 -244 0
-296 -245 0
-297 -246 0
-313 -247 0
-314 -248 0
-315 -249 0
-364 -247 0
-365 -248 0
-366 -249 0
-421 -247 0
-422 -248 0
-423 -249 0
-481 -247 0
-482 -248 0
-483 -249 0
-253 -250 0
-254 -251 0
-255 -252 0
-445 -250 0
-446 -251 0
-447 -252 0
-379 -253 0
-380 -254 0
-381 -255 0
-406 -253 0
-407 -254 0
-408 -255 0
-472 -253 0
-473 -254 0
-474 -255 0
-370 -256 0
-371 -257 0
-372 -258 0
-520 -259 0
-521 -260 0
-522 -261 0
-340 -262 0
-341 -263 0
-342 -264 0
-493 -262 0
-494 -263 0
-495 -264 0
-298 -265 0
-299 -266 0
-300 -267 0
-403 -265 0
-404 -266 0
-405 -267 0
-463 -265 0
-464 -266 0
-465 -267 0
-517 -265 0
-518 -266 0
-519 -267 0
-289 -271 0
-290 -272 0
-291 -273 0
-295 -271 0
-296 -272 0
-297 -273 0
-334 -271 0
-335 -272 0
-336 -273 0
-364 -271 0
-365 -272 0
-366 -273 0
-502 -271 0
-503 -272 0
-504 -273 0
-277 -274 0
-278 -275 0
-279 -276 0
-301 -277 0
-302 -278 0
-303 -279 0
-346 -277 0
-347 -278 0
-348 -279 0
-379 -277 0
-380 -278 0
-381 -279 0
-322 -280 0
-323 -281 0
-324 -282 0
-325 -280 0
-326 -281 0
-327 -282 0
-514 -280 0
-515 -281 0
-516 -282 0
-355 -283 0
-356 -284 0
-357 -285 0
-424 -283 0
-425 -284 0
-426 -285 0
-439 -283 0
-440 -284 0
-441 -285 0
-319 -286 0
-320 -287 0
-321 -288 0
-379 -286 0
-380 -287 0
-381 -288 0
-499 -286 0
-500 -287 0
-501 -288 0
-493 -289 0
-494 -290 0
-495 -291 0
-514 -289 0
-515 -290 0
-516 -291 0
-382 -292 0
-383 -293 0
-384 -294 0
-436 -292 0
-437 -293 0
-438 -294 0
-307 -295 0
-308 -296 0
-309 -297 0
-310 -298 0
-311 -299 0
-312 -300 0
-313 -298 0
-314 -299 0
-315 -300 0
-382 -298 0
-383 -299 0
-384 -300 0
-523 -298 0
-524 -299 0
-525 -300 0
-331 -301 0
-332 -302 0
-333 -303 0
-310 -304 0
-311 -305 0
-312 -306 0
-523 -304 0
-524 -305 0
-525 -306 0
-361 -307 0
-362 -308 0
-363 -309 0
-523 -307 0
-524 -308 0
-525 -309 0
-469 -310 0
-470 -311 0
-471 -312 0
-409 -313 0
-410 -314 0
-411 -315 0
-424 -316 0
-425 -317 0
-426 -318 0
-520 -316 0
-521 -317 0
-522 -318 0
-523 -316 0
-524 -317 0
-525 -318 0
-376 -319 0
-377 -320 0
-378 -321 0
-490 -319 0
-491 -320 0
-492 -321 0
-400 -322 0
-401 -323 0
-402 -324 0
-493 -322 0
-494 -323 0
-495 -324 0
-352 -325 0
-353 -326 0
-354 -327 0
-373 -325 0
-374 -326 0
-375 -327 0
-481 -325 0
-482 -326 0
-483 -327 0
-487 -325 0
-488 -326 0
-489 -327 0
-517 -325 0
-518 -326 0
-519 -327 0
-442 -328 0
-443 -329 0
-444 -330 0
-496 -328 0
-497 -329 0
-498 -330 0
-523 -331 0
-524 -332 0
-525 -333 0
-496 -334 0
-497 -335 0
-498 -336 0
-355 -340 0
-356 -341 0
-357 -342 0
-367 -340 0
-368 -341 0
-369 -342 0
-472 -340 0
-473 -341 0
-474 -342 0
-520 -340 0
-521 -341 0
-522 -342 0
-400 -343 0
-401 -344 0
-402 -345 0
-451 -343 0
-452 -344 0
-453 -345 0
-475 -346 0
-476 -347 0
-477 -348 0
-352 -349 0
-353 -350 0
-354 -351 0
-514 -352 0
-515 -353 0
-516 -354 0
-448 -355 0
-449 -356 0
-450 -357 0
-505 -355 0
-506 -356 0
-507 -357 0
-466 -358 0
-467 -359 0
-468 -360 0
-424 -364 0
-425 -365 0
-426 -366 0
-520 -364 0
-521 -365 0
-522 -366 0
-463 -367 0
-464 -368 0
-465 -369 0
-415 -370 0
-416 -371 0
-417 -372 0
-457 -373 0
-458 -374 0
-459 -375 0
-511 -373 0
-512 -374 0
-513 -375 0
-418 -376 0
-419 -377 0
-420 -378 0
-406 -379 0
-407 -380 0
-408 -381 0
-445 -382 0
-446 -383 0
-447 -384 0
-499 -382 0
-500 -383 0
-501 -384 0
-400 -385 0
-401 -386 0
-402 -387 0
-457 -385 0
-458 -386 0
-459 -387 0
-478 -385 0
-479 -386 0
-480 -387 0
-436 -388 0
-437 -389 0
-438 -390 0
-487 -388 0
-488 -389 0
-489 -390 0
-415 -391 0
-416 -392 0
-417 -393 0
-412 -409 0
-413 -410 0
-414 -411 0
-424 -409 0
-425 -410 0
-426 -411 0
-430 -412 0
-431 -413 0
-432 -414 0
-469 -418 0
-470 -419 0
-471 -420 0
-478 -418 0
-479 -419 0
-480 -420 0
-502 -418 0
-503 -419 0
-504 -420 0
-445 -427 0
-446 -428 0
-447 -429 0
-439 -430 0
-440 -431 0
-441 -432 0
-460 -430 0
-461 -431 0
-462 -432 0
-478 -430 0
-479 -431 0
-480 -432 0
-499 -433 0
-500 -434 0
-501 -435 0
-451 -442 0
-452 -443 0
-453 -444 0
-499 -445 0
-500 -446 0
-501 -447 0
-457 -448 0
-458 -449 0
-459 -450 0
-514 -448 0
-515 -449 0
-516 -450 0
-499 -451 0
-500 -452 0
-501 -453 0
-499 -454 0
-500 -455 0
-501 -456 0
-496 -457 0
-497 -458 0
-498 -459 0
-520 -457 0
-521 -458 0
-522 -459 0
-514 -469 0
-515 -470 0
-516 -471 0
-502 -472 0
-503 -473 0
-504 -474 0
-499 -475 0
-500 -476 0
-501 -477 0
-523 -475 0
-524 -476 0
-525 -477 0
-508 -505 0
-509 -506 0
-510 -507 0
-514 -505 0
-515 -506 0
-516 -507 0
